125
0 1 2 3 4 5 9 10 11 12 14 15 16 17 20 21 24 25 26 27 28 29 31 32 35 36 37 39 44 45 46 48 53 55 56 57 58 59 60 61 66 68 70 79 80 81 82 83 90 91 92 93 94 95 96 97 98 99 100 102 103 104 105 106 107 113 115 116 119 120 121 122 123 
1 0 3 4 5 6 9 10 12 13 14 17 20 22 25 26 27 29 30 31 32 33 34 36 38 39 41 43 45 48 49 53 54 55 56 57 58 59 60 61 63 65 66 67 69 71 72 73 74 75 77 78 81 88 90 93 97 99 101 103 104 110 112 113 114 115 117 122 123 
2 0 3 4 5 6 7 9 12 13 16 17 23 24 27 29 31 32 33 35 36 39 40 41 42 43 44 48 49 53 56 58 59 60 63 64 65 68 70 73 77 78 79 80 81 82 83 84 86 88 90 93 96 100 104 105 106 107 109 110 111 112 113 117 118 119 120 121 123 
3 0 1 2 5 9 11 13 15 16 17 20 22 23 24 26 28 29 31 33 34 38 39 40 42 44 45 46 50 51 54 55 57 59 60 62 65 66 67 70 72 75 76 78 80 84 86 89 91 92 93 95 100 102 103 104 111 112 113 114 115 116 117 120 123 124 
4 0 1 2 7 8 10 11 12 14 15 16 19 23 29 30 34 40 43 46 47 50 53 54 58 60 61 64 65 66 70 75 76 77 78 83 85 86 87 90 91 92 95 97 99 100 101 102 103 105 106 108 110 111 119 124 
5 0 1 2 3 6 9 10 16 17 18 20 22 25 27 28 33 35 36 37 41 43 45 46 47 48 50 51 52 53 54 55 57 58 59 60 64 65 66 71 74 79 80 81 83 84 88 89 90 91 94 95 97 98 99 100 102 105 109 110 111 113 115 118 119 120 122 124 
6 1 2 5 9 11 13 17 18 19 20 23 24 25 30 31 34 35 36 37 38 39 42 43 44 45 46 49 50 51 56 57 58 60 62 64 66 67 71 77 78 80 81 82 85 86 91 92 93 94 95 98 99 105 109 110 112 114 117 119 120 121 
7 2 4 9 10 11 12 13 14 15 16 17 20 23 25 28 32 34 35 37 42 44 47 49 53 55 57 58 60 63 68 71 72 73 74 75 76 77 79 81 82 83 84 85 89 94 95 98 99 100 103 104 106 108 113 115 116 117 121 124 
8 4 10 11 12 15 16 20 21 22 23 24 26 31 33 34 36 37 39 45 46 48 49 50 51 53 54 55 56 58 63 64 65 66 68 70 71 72 73 74 76 77 80 81 82 83 84 85 86 87 89 95 99 105 106 107 110 116 117 118 121 122 
9 0 1 2 3 5 6 7 13 14 15 16 18 20 24 25 26 27 28 29 30 32 35 36 37 39 40 43 44 47 49 57 59 63 65 66 67 70 71 73 78 80 83 84 86 87 88 90 91 93 94 95 96 100 101 102 104 107 108 109 115 116 117 118 119 120 122 124 
10 0 1 4 5 7 8 11 12 19 21 22 24 27 29 30 31 33 36 39 40 42 44 45 47 48 51 53 54 56 57 58 60 61 66 67 70 72 74 78 81 82 84 85 86 87 88 89 90 92 98 101 102 103 104 107 111 112 113 118 121 122 
11 0 3 4 6 7 8 10 12 14 16 17 19 20 23 25 29 31 32 33 35 38 40 42 44 45 47 49 50 52 53 56 58 61 62 63 64 71 73 74 75 76 78 80 84 86 88 89 91 96 97 102 103 104 107 108 111 112 115 118 120 121 122 124 
12 0 1 2 4 7 8 10 11 14 15 16 17 19 20 21 23 24 28 32 34 35 38 40 42 46 47 49 53 58 59 62 63 64 68 69 73 74 75 77 80 82 83 84 86 87 88 92 93 97 98 99 101 102 106 107 109 111 112 114 115 116 119 120 122 
13 1 2 3 6 7 9 19 23 28 30 34 36 37 38 39 41 42 43 45 46 47 49 50 54 56 60 63 64 65 66 69 70 71 73 74 76 77 78 83 88 89 90 92 93 94 96 97 99 103 104 108 111 113 117 118 119 120 122 123 124 
14 0 1 4 7 9 11 12 16 17 18 20 21 25 28 29 30 32 35 36 40 42 46 50 51 53 54 56 58 62 64 65 66 69 73 74 76 77 80 81 82 85 88 91 92 93 97 99 102 103 104 105 108 109 113 114 116 119 121 123 124 
15 0 3 4 7 8 9 12 16 18 20 21 22 23 24 25 26 28 29 30 32 33 35 36 37 38 41 44 47 50 52 53 54 56 57 58 59 64 68 72 75 79 80 82 83 84 85 86 88 90 95 98 99 100 101 104 111 114 117 118 119 121 122 
16 0 2 3 4 5 7 8 9 11 12 14 15 19 21 22 24 25 26 28 29 31 33 34 35 38 42 46 49 55 56 57 60 61 63 64 66 67 68 72 73 74 75 76 77 78 81 83 84 89 90 92 96 97 99 101 102 103 104 105 107 108 109 110 111 113 114 115 116 117 119 123 
17 0 1 2 3 5 6 7 11 12 14 18 19 20 21 22 24 25 26 27 29 30 31 34 35 38 42 44 45 47 49 50 53 54 56 58 59 61 63 66 71 72 73 75 76 78 80 83 84 85 86 87 88 90 91 92 93 96 98 99 100 102 103 104 105 106 111 113 115 116 118 119 120 124 
18 5 6 9 14 15 17 19 21 22 23 25 26 30 32 33 34 36 37 38 39 40 44 48 51 52 55 58 59 60 63 64 65 68 71 72 73 78 79 80 81 82 83 86 87 89 91 92 96 97 99 100 101 102 103 106 107 111 114 115 116 118 119 120 123 124 
19 4 6 10 11 12 13 16 17 18 22 23 24 25 26 29 30 33 40 41 42 43 44 46 49 50 51 55 59 61 65 66 67 68 69 74 75 78 81 82 83 86 89 91 94 99 100 101 107 109 113 114 115 116 117 119 120 123 124 
20 0 1 3 5 6 7 8 9 11 12 14 15 17 21 23 25 26 28 30 32 36 37 39 40 43 44 45 46 47 50 51 52 53 54 57 59 60 61 62 63 64 65 70 73 74 77 78 80 82 84 86 87 90 92 97 99 103 109 112 113 115 117 119 121 122 
21 0 8 10 12 14 15 16 17 18 20 22 23 24 27 28 32 33 35 36 37 40 44 46 48 49 54 55 56 57 59 60 61 62 63 64 68 72 73 75 78 84 86 89 90 94 95 96 97 98 99 101 102 103 104 107 109 110 114 115 119 
22 1 3 5 8 10 15 16 17 18 19 21 23 24 25 26 27 28 29 30 34 37 42 43 44 45 46 48 50 53 54 55 57 58 60 64 65 66 67 69 70 71 72 75 77 79 81 86 87 93 95 96 97 98 102 104 105 106 109 110 112 114 115 118 121 122 124 
23 2 3 4 6 7 8 11 12 13 15 18 19 20 21 22 24 25 27 28 32 33 34 37 40 41 42 43 44 46 47 48 49 50 53 54 55 57 61 62 65 66 67 68 69 71 73 75 77 78 79 81 86 87 90 92 94 95 97 98 99 100 101 103 104 105 108 109 110 112 113 115 117 118 122 124 
24 0 2 3 6 8 9 10 12 15 16 17 19 21 22 23 25 26 28 29 30 31 33 34 36 38 39 41 42 43 45 47 48 51 52 54 59 60 63 64 66 72 78 80 83 84 85 88 92 94 98 102 103 104 105 107 109 117 118 120 123 124 
25 0 1 5 6 7 9 11 14 15 16 17 18 19 20 22 23 24 27 29 32 33 35 37 39 40 41 42 43 44 45 46 47 49 51 52 53 54 56 57 58 59 60 61 62 63 65 67 68 69 75 77 82 84 85 86 87 89 93 94 96 98 99 100 102 104 107 108 112 113 118 120 121 122 124 
26 0 1 3 8 9 15 16 17 18 19 20 22 24 28 29 32 34 38 39 44 46 50 51 53 58 62 65 68 70 71 72 74 75 77 78 79 82 83 86 88 91 94 95 97 98 102 103 106 108 112 113 114 115 117 120 121 
27 0 1 2 5 9 10 17 21 22 23 25 28 29 31 32 33 35 37 38 41 43 44 46 49 51 53 54 55 56 57 58 64 65 66 68 69 70 71 73 74 78 80 82 85 86 87 88 89 91 93 94 96 97 100 101 103 104 105 111 113 114 116 117 118 119 120 122 124 
28 0 3 5 7 9 12 13 14 15 16 20 21 22 23 24 26 27 30 31 32 37 39 43 45 46 51 54 56 57 58 59 61 62 65 68 69 73 75 77 78 83 87 90 91 92 93 94 95 98 100 113 114 115 117 118 121 123 
29 0 1 2 3 4 9 10 11 14 15 16 17 19 22 24 25 26 27 34 35 36 37 40 44 45 48 51 52 57 61 62 64 67 69 70 72 73 74 75 76 78 84 86 87 92 94 95 96 97 98 101 103 104 106 107 108 109 110 111 112 113 116 117 123 
30 1 4 6 9 10 13 14 15 17 18 19 20 22 24 28 35 36 37 40 42 44 45 47 49 53 57 58 60 61 62 63 64 65 67 69 72 73 76 78 80 82 83 85 86 87 93 97 99 100 101 103 105 111 112 114 119 120 
31 0 1 2 3 6 8 10 11 16 17 24 27 28 32 34 35 36 37 42 46 47 51 52 54 58 61 62 63 65 66 67 70 71 74 77 82 83 92 93 97 98 100 104 105 106 107 108 109 111 112 113 114 117 118 120 122 
32 0 1 2 7 9 11 12 14 15 18 20 21 23 25 26 27 28 31 33 35 36 39 40 41 42 44 45 46 47 48 50 51 53 57 60 61 64 65 67 71 76 77 78 79 81 82 83 84 85 87 88 89 91 94 95 96 97 98 99 101 102 104 105 107 108 109 110 113 114 116 117 118 123 
33 1 2 3 5 8 10 11 15 16 18 19 21 23 24 25 27 32 34 35 41 43 45 46 47 48 49 51 52 54 55 56 57 58 61 66 69 71 72 75 83 84 85 86 89 90 91 92 94 95 98 99 101 107 109 110 113 114 115 118 119 122 124 
34 1 3 4 6 7 8 12 13 16 17 18 22 23 24 26 29 31 33 37 38 40 43 44 45 52 54 55 57 59 61 62 66 68 70 71 72 75 76 77 78 79 82 83 84 85 86 91 94 95 96 97 98 99 102 103 105 111 112 114 115 120 124 
35 0 2 5 6 7 9 11 12 14 15 16 17 21 25 27 29 30 31 32 33 36 41 43 46 47 48 49 52 54 55 56 57 62 65 66 67 68 71 72 73 74 79 80 81 84 87 92 95 96 98 100 101 102 103 104 106 107 109 111 112 113 114 115 120 121 
36 0 1 2 5 6 8 9 10 13 14 15 18 20 21 24 29 30 31 32 35 39 42 44 45 47 53 55 57 62 64 66 67 70 71 73 74 77 79 81 82 84 87 92 95 96 98 99 101 102 107 108 109 112 115 117 118 119 120 121 122 
37 0 5 6 7 8 9 13 15 18 20 21 22 23 25 27 28 29 30 31 34 39 41 42 43 44 48 50 51 53 54 56 58 59 61 62 63 65 67 68 69 70 75 76 77 83 85 86 88 90 91 93 94 99 100 101 104 105 110 112 113 117 119 122 124 
38 1 3 6 11 12 13 15 16 17 18 24 26 27 34 42 43 44 47 50 51 53 55 56 57 59 61 62 64 65 66 67 68 71 72 74 76 77 85 88 97 98 99 100 102 103 105 109 110 112 113 116 118 119 123 
39 0 1 2 3 6 8 9 10 13 18 20 24 25 26 28 32 36 37 40 41 43 44 47 48 50 51 52 55 57 58 59 61 62 63 66 67 69 70 72 75 76 77 78 82 83 85 86 87 88 89 90 91 92 93 94 95 99 100 105 109 110 114 115 116 117 120 122 123 
40 2 3 4 9 10 11 12 14 18 19 20 21 23 25 29 30 32 34 39 43 44 49 52 56 57 58 60 62 73 74 75 81 85 86 89 92 94 97 99 104 106 108 110 111 112 114 115 117 118 119 120 121 122 124 
41 1 2 5 13 15 19 23 24 25 27 32 33 35 37 39 43 46 48 49 50 51 52 54 55 56 59 61 62 63 65 66 69 71 74 75 76 78 80 81 82 83 85 86 90 94 96 97 98 101 105 109 114 116 121 122 124 
42 2 3 6 7 10 11 12 13 14 16 17 19 22 23 24 25 30 31 32 36 37 38 43 44 49 52 55 56 57 59 64 65 67 74 75 77 78 82 83 87 90 96 98 101 103 105 106 107 108 109 111 113 115 118 120 123 124 
43 1 2 4 5 6 9 13 19 20 22 23 24 25 27 28 33 34 35 37 38 39 40 41 42 44 49 50 51 52 55 56 57 59 60 63 64 68 69 70 71 77 79 81 82 86 90 91 92 93 97 99 100 103 106 109 110 111 112 114 116 120 121 122 
44 0 2 3 6 7 9 10 11 15 17 18 19 20 21 22 23 25 26 27 29 30 32 34 36 37 38 39 40 42 43 47 50 53 55 58 60 61 62 65 66 67 69 70 71 72 73 77 79 80 81 82 83 91 92 93 95 102 110 111 113 116 117 118 121 
45 0 1 3 5 6 8 10 11 13 17 20 22 24 25 28 29 30 32 33 34 36 46 47 50 51 52 53 55 57 58 59 60 63 64 67 70 72 73 77 78 79 81 83 84 85 89 90 93 94 99 104 105 106 107 109 110 111 112 113 114 116 117 119 122 124 
46 0 3 4 5 6 8 12 13 14 16 19 20 21 22 23 25 26 27 28 31 32 33 35 41 45 48 50 51 52 53 54 56 58 60 61 62 63 66 68 69 72 76 77 78 80 81 84 86 88 90 93 95 96 97 99 101 102 103 104 105 107 112 114 117 119 122 123 
47 4 5 7 9 10 11 12 13 15 17 20 23 24 25 30 31 32 33 35 36 38 39 44 45 48 49 50 51 53 55 56 57 59 62 63 64 65 66 67 68 69 70 73 76 77 78 81 82 83 87 89 90 91 93 94 95 96 98 101 104 106 107 110 112 113 114 117 120 122 124 
48 0 1 2 5 8 10 18 21 22 23 24 29 32 33 35 37 39 41 46 47 49 51 52 53 56 58 60 61 62 66 67 70 71 73 76 77 78 79 81 82 84 86 88 91 92 95 96 97 101 102 105 106 107 108 111 114 115 121 122 123 124 
49 1 2 6 7 8 9 11 12 13 16 17 19 21 23 25 27 30 33 35 40 41 42 43 47 48 50 52 53 54 56 58 59 60 62 64 66 72 73 74 78 79 82 84 88 90 91 93 98 99 103 106 108 112 113 115 116 117 118 121 122 
50 3 4 5 6 8 11 13 14 15 17 19 20 22 23 26 32 37 38 39 41 43 44 45 46 47 49 54 55 57 58 60 61 62 63 64 65 66 69 72 73 74 76 78 79 80 81 83 84 88 90 92 94 95 98 99 100 101 107 108 109 112 113 114 116 118 121 
51 3 5 6 8 10 14 18 19 20 24 25 26 27 28 29 31 32 33 37 38 39 41 43 45 46 47 48 52 55 56 63 64 70 71 72 73 76 77 80 84 87 89 90 94 96 97 98 100 105 108 109 110 111 112 113 114 119 121 123 124 
52 5 11 15 18 20 24 25 29 31 33 34 35 39 40 41 42 43 45 46 48 49 51 55 57 58 59 63 65 67 69 70 73 78 80 81 85 86 87 88 92 93 96 98 100 102 104 107 108 110 111 114 115 118 119 120 121 122 123 
53 0 1 2 4 5 7 8 10 11 12 14 15 17 20 22 23 25 26 27 30 32 36 37 38 44 45 46 47 48 49 54 55 56 58 59 60 61 64 68 69 70 71 73 75 78 79 80 81 82 83 84 88 89 91 93 94 95 96 97 98 101 102 104 107 109 113 116 119 120 121 122 123 124 
54 1 3 4 5 8 10 13 14 15 17 20 21 22 23 24 25 27 28 31 33 34 35 37 41 46 49 50 53 56 60 61 64 65 69 71 72 73 76 79 81 84 85 86 89 92 93 96 99 100 101 105 106 109 110 113 114 117 120 124 
55 0 1 3 5 7 8 16 18 19 21 22 23 27 33 34 35 36 38 39 41 42 43 44 45 47 50 51 52 53 56 57 59 60 61 63 64 65 67 70 74 75 79 80 82 83 86 89 92 94 95 98 99 103 105 106 109 110 111 113 115 116 117 118 119 120 122 124 
56 0 1 2 6 8 10 11 13 14 15 16 17 21 25 27 28 33 35 37 38 40 41 42 43 46 47 48 49 51 53 54 55 60 61 63 64 69 71 72 75 76 77 80 82 88 89 91 92 93 95 98 99 100 102 103 104 105 108 110 111 113 117 118 119 120 122 123 
57 0 1 3 5 6 7 9 10 15 16 20 21 22 23 25 27 28 29 30 32 33 34 35 36 38 39 40 42 43 45 47 50 52 55 59 63 65 66 67 68 70 73 75 77 78 79 81 84 85 86 88 94 95 96 97 99 102 103 104 106 107 108 111 113 115 120 121 123 124 
58 0 1 2 4 5 6 7 8 10 11 12 14 15 17 18 22 25 26 27 28 30 31 33 37 39 40 44 45 46 48 49 50 52 53 60 63 64 68 69 70 73 74 78 79 80 81 82 86 87 88 89 90 92 93 96 97 98 99 102 105 107 109 111 113 116 117 120 121 124 
59 0 1 2 3 5 9 12 15 17 18 19 20 21 24 25 28 34 37 38 39 41 42 43 45 47 49 52 53 55 57 60 62 64 68 74 75 76 77 78 79 80 81 84 88 90 92 93 95 96 97 98 99 100 101 102 103 108 110 114 116 121 122 123 124 
60 0 1 2 3 4 5 6 7 10 13 16 18 20 21 22 24 25 30 32 40 43 44 45 46 48 49 50 53 54 55 56 58 59 64 66 67 72 75 81 83 84 86 88 90 94 96 97 101 105 106 108 109 111 112 113 114 116 118 121 122 124 
61 0 1 4 10 11 16 17 19 20 21 23 25 28 29 30 31 32 33 34 37 38 39 41 44 46 48 50 53 54 55 56 64 72 73 74 76 77 81 82 85 86 89 90 91 92 95 100 107 108 109 113 115 116 117 119 120 121 122 123 124 
62 3 6 11 12 14 20 21 23 25 26 28 29 30 31 34 35 36 37 38 39 40 41 44 46 47 48 49 50 59 63 64 66 69 76 77 78 79 80 84 89 90 91 93 94 96 98 99 101 104 107 108 109 110 113 114 123 124 
63 1 2 7 8 9 11 12 13 16 17 18 20 21 24 25 30 31 37 39 41 43 45 46 47 50 51 52 55 56 57 58 62 64 68 71 74 75 78 79 81 82 83 84 85 92 95 99 100 103 104 106 108 110 111 113 116 118 119 120 121 122 
64 2 4 5 6 8 11 12 13 14 15 16 18 20 21 22 24 27 29 30 32 36 38 42 43 45 47 49 50 51 53 54 55 56 58 59 60 61 62 63 65 68 72 77 78 80 82 85 86 90 92 95 97 101 103 105 106 107 108 110 111 113 116 118 119 121 122 123 
65 1 2 3 4 5 8 9 13 14 18 19 20 22 23 25 26 27 28 30 31 32 35 37 38 41 42 44 47 50 52 54 55 57 64 68 69 70 71 73 76 77 81 84 87 88 89 90 93 95 96 97 98 101 103 105 106 107 110 111 112 113 114 115 116 117 118 120 124 
66 0 1 3 4 5 6 8 9 10 13 14 16 17 19 22 23 24 27 31 33 34 35 36 38 39 41 44 46 47 48 49 50 57 60 62 71 72 73 78 81 84 87 91 94 96 97 98 100 101 102 104 105 106 108 114 115 121 122 124 
67 1 3 6 9 10 16 19 22 23 25 29 30 31 32 35 36 37 38 39 42 44 45 47 48 52 55 57 60 68 72 73 74 75 77 78 79 81 83 85 87 89 90 91 92 93 97 98 100 103 104 106 107 108 109 111 112 113 115 118 119 122 123 
68 0 2 7 8 12 15 16 18 19 21 23 25 26 27 28 34 35 37 38 43 46 47 53 57 58 59 63 64 65 67 70 77 79 82 86 87 89 90 92 93 94 96 97 98 99 100 101 102 103 105 108 111 112 117 122 
69 1 12 13 14 19 22 23 25 27 28 29 30 33 37 39 41 43 44 46 47 50 52 53 54 56 58 62 65 76 77 80 83 84 85 86 87 89 90 91 92 93 95 97 98 99 101 104 107 112 113 114 117 119 121 
70 0 2 3 4 8 9 10 13 20 22 26 27 29 31 34 36 37 39 43 44 45 47 48 51 52 53 55 57 58 65 68 71 74 76 80 81 83 84 85 87 88 91 93 95 97 99 101 102 106 108 111 112 113 119 120 124 
71 1 5 6 7 8 9 11 13 17 18 22 23 26 27 31 32 33 34 35 36 38 41 43 44 48 51 53 54 56 63 65 66 70 74 76 79 81 82 83 85 88 90 93 94 98 102 103 104 109 110 111 115 116 117 119 121 122 123 124 
72 1 3 7 8 10 15 16 17 18 21 22 24 26 29 30 33 34 35 38 39 44 45 46 49 50 51 54 56 60 61 64 66 67 73 74 84 85 87 90 94 98 100 102 104 106 107 108 109 110 111 112 113 114 115 116 119 121 124 
73 1 2 7 8 9 11 12 13 14 16 17 18 20 21 23 27 28 29 30 35 36 40 44 45 47 48 49 50 51 52 53 54 57 58 61 65 66 67 72 76 77 79 81 82 84 90 94 99 101 102 103 104 107 108 109 112 114 121 
74 1 5 7 8 10 11 12 13 14 16 19 20 26 27 29 31 35 36 38 40 41 42 49 50 55 58 59 61 63 67 70 71 72 75 76 78 81 82 83 85 90 91 94 102 104 105 109 110 112 113 116 118 121 122 123 
75 1 3 4 7 11 12 15 16 17 19 21 22 23 25 26 28 29 33 34 37 39 40 41 42 53 55 56 57 59 60 63 67 74 76 78 79 80 88 91 92 94 96 100 101 102 105 107 111 117 118 124 
76 3 4 7 8 11 13 14 16 17 29 30 32 34 37 38 39 41 46 47 48 50 51 54 56 59 61 62 65 69 70 71 73 74 75 77 78 81 83 84 88 90 92 93 99 102 103 107 108 111 112 114 116 117 119 121 123 
77 1 2 4 6 7 8 12 13 14 16 20 22 23 25 26 28 31 32 34 36 37 38 39 42 43 44 45 46 47 48 51 56 57 59 61 62 64 65 67 68 69 73 76 79 80 83 84 88 89 91 92 97 99 104 105 106 109 110 112 118 120 121 122 124 
78 1 2 3 4 6 9 10 11 13 16 17 18 19 20 21 23 24 26 27 28 29 30 32 34 39 41 42 45 46 47 48 49 50 52 53 57 58 59 62 63 64 66 67 74 75 76 79 84 85 87 88 89 90 91 92 93 94 96 97 98 102 106 108 109 111 112 119 121 124 
79 0 2 5 7 15 18 22 23 26 32 34 35 36 43 44 45 48 49 50 53 54 55 57 58 59 62 63 67 68 71 73 75 77 78 80 83 84 85 86 87 88 90 92 93 95 97 99 100 102 103 107 108 109 110 111 113 114 115 116 117 118 121 122 
80 0 2 3 5 6 8 9 11 12 14 15 17 18 20 24 27 30 35 41 44 46 50 51 52 53 55 56 58 59 62 64 69 70 75 77 79 82 83 84 87 88 89 93 95 97 99 100 101 105 106 107 108 109 110 111 113 114 121 124 
81 0 1 2 5 6 7 8 10 14 16 18 19 22 23 32 35 36 40 41 43 44 45 46 47 48 50 52 53 54 57 58 59 60 61 63 65 66 67 70 71 73 74 76 82 83 85 87 88 89 91 94 100 101 104 106 108 109 111 120 122 123 
82 0 2 6 7 8 10 12 14 15 18 19 20 25 26 27 30 31 32 34 36 39 41 42 43 44 47 48 49 53 55 56 58 61 63 64 68 71 73 74 80 81 83 84 86 89 90 91 92 94 95 97 99 100 101 103 105 106 108 111 113 118 123 
83 0 2 4 5 7 8 9 12 13 15 16 17 18 19 24 26 28 30 31 32 33 34 37 39 41 42 44 45 47 50 53 55 60 63 67 69 70 71 74 76 77 79 80 81 82 84 86 88 90 91 92 94 96 97 98 99 101 103 105 106 108 111 116 117 119 120 122 
84 2 3 5 7 8 9 10 11 12 15 16 17 20 21 24 25 29 32 33 34 35 36 45 46 48 49 50 51 53 54 57 59 60 62 63 65 66 69 70 72 73 76 77 78 79 80 82 83 85 86 88 92 94 96 97 98 100 102 104 106 108 111 112 114 118 122 124 
85 4 6 7 8 10 14 15 17 24 25 27 30 32 33 34 37 38 39 40 41 45 52 54 57 61 63 64 67 69 70 71 72 74 78 79 81 84 86 90 91 93 94 96 98 99 100 101 102 103 107 110 111 113 114 115 117 124 
86 2 3 4 6 8 9 10 11 12 15 17 18 19 20 21 22 23 25 26 27 29 30 33 34 37 39 40 41 43 46 48 52 54 55 57 58 60 61 64 68 69 79 82 83 84 85 92 93 94 95 98 99 101 103 105 107 109 111 113 115 117 119 120 124 
87 4 8 9 10 12 17 18 20 22 23 25 27 28 29 30 32 35 36 39 42 47 51 52 58 65 66 67 68 69 70 72 78 79 80 81 89 90 91 93 94 97 100 101 102 104 105 107 108 111 115 117 121 123 
88 1 2 5 9 10 11 12 13 14 15 17 24 26 27 32 37 38 39 46 48 49 50 52 53 56 57 58 59 60 65 70 71 75 76 77 78 79 80 81 83 84 90 99 100 101 103 105 107 111 112 115 116 118 122 124 
89 3 5 7 8 10 11 13 16 18 19 21 25 27 32 33 39 40 45 47 51 53 54 55 56 58 61 62 65 67 68 69 77 78 80 81 82 87 90 92 93 95 98 103 105 107 110 113 115 116 118 119 120 121 122 123 124 
90 0 1 2 4 5 9 10 13 15 16 17 20 21 23 28 33 37 39 41 42 43 45 46 47 49 50 51 58 59 60 61 62 64 65 67 68 69 71 72 73 74 76 78 79 82 83 85 87 88 89 92 93 95 99 100 103 104 106 109 110 114 116 117 121 122 123 
91 0 3 4 5 6 9 11 14 17 18 19 26 27 28 32 33 34 37 39 43 44 47 48 49 53 56 61 62 66 67 69 70 74 75 77 78 81 82 83 85 87 92 93 95 97 99 100 101 102 103 104 108 110 112 117 118 120 121 122 123 
92 0 3 4 6 10 12 13 14 16 17 18 20 23 24 28 29 31 33 35 36 39 40 43 44 48 50 52 54 55 56 58 59 61 63 64 67 68 69 75 76 77 78 79 82 83 84 86 89 90 91 94 95 96 97 99 101 102 104 105 108 109 112 114 115 117 119 121 122 124 
93 0 1 2 3 6 9 12 13 14 17 22 25 27 28 30 31 37 39 43 44 45 46 47 49 52 53 54 56 58 59 62 65 67 68 69 70 71 76 78 79 80 85 86 87 89 90 91 94 96 100 101 102 103 105 106 107 110 112 115 116 120 122 123 
94 0 5 6 7 9 13 19 21 23 24 25 26 27 28 29 32 33 34 37 39 40 41 45 47 50 51 53 55 57 60 62 66 68 71 72 73 74 75 78 81 82 83 84 85 86 87 92 93 101 106 108 113 114 115 117 119 120 121 123 124 
95 0 3 4 5 6 7 8 9 15 21 22 23 26 28 29 32 33 34 35 36 39 44 46 47 48 50 53 55 56 57 59 61 63 64 65 69 70 79 80 82 86 89 90 91 92 97 99 101 102 105 106 107 109 110 112 118 119 120 123 
96 0 2 9 11 13 16 17 18 21 22 25 27 29 32 34 35 36 41 42 46 47 48 51 52 53 54 57 58 59 60 62 65 66 68 75 78 83 84 85 92 93 98 100 101 102 105 109 111 112 114 116 120 122 
97 0 1 4 5 11 12 13 14 16 18 20 21 22 23 26 27 29 30 31 32 34 38 40 41 43 46 48 51 53 57 58 59 60 64 65 66 67 68 69 70 77 78 79 80 82 83 84 87 91 92 95 99 102 103 105 107 108 109 110 114 115 117 120 121 122 123 
98 0 5 6 7 10 12 15 17 21 22 23 24 25 26 28 29 31 32 33 34 35 36 38 41 42 47 49 50 51 52 53 55 56 58 59 62 65 66 67 68 69 71 72 78 83 84 85 86 89 96 102 104 106 108 116 117 120 121 123 124 
99 0 1 4 5 6 7 8 12 13 14 15 16 17 18 19 20 21 23 25 30 32 33 34 36 37 38 39 40 43 45 46 49 50 54 55 56 57 58 59 62 63 68 69 70 73 76 77 79 80 82 83 85 86 88 90 91 92 95 97 100 101 102 105 107 109 110 112 114 117 118 119 122 
100 0 2 3 4 5 7 9 15 17 18 19 23 25 27 28 30 31 35 37 38 39 43 50 51 52 54 56 59 61 63 66 67 68 72 75 79 80 81 82 84 85 87 88 90 91 93 96 99 102 104 105 107 109 110 111 112 113 116 118 120 124 
101 1 4 9 10 12 15 16 18 19 21 23 27 29 30 32 33 35 36 37 41 42 46 47 48 50 53 54 59 60 62 64 65 66 68 69 70 73 75 80 81 82 83 85 86 87 88 91 92 93 94 95 96 99 102 103 105 108 109 112 113 118 119 121 122 
102 0 3 4 5 9 10 11 12 14 16 17 18 21 22 24 25 26 32 34 35 36 38 44 46 48 52 53 56 57 58 59 66 68 70 71 72 73 74 75 76 78 79 84 85 87 91 92 93 95 96 97 98 99 100 101 103 105 106 107 108 109 111 113 114 117 118 119 121 122 
103 0 1 3 4 7 10 11 13 14 16 17 18 20 21 23 24 26 27 29 30 34 35 38 42 43 46 49 55 56 57 59 63 64 65 67 68 71 73 76 79 82 83 85 86 88 89 90 91 93 97 101 102 104 105 106 110 111 112 115 117 118 120 122 123 
104 0 1 2 3 7 9 10 11 13 14 15 16 17 21 22 23 24 25 27 29 31 32 35 37 40 45 46 47 52 53 56 57 62 63 66 67 69 71 72 73 74 77 81 84 87 90 91 92 98 100 103 105 106 108 109 112 119 123 
105 0 2 4 5 6 8 14 16 17 22 23 24 27 30 31 32 34 37 38 39 41 42 45 46 48 51 54 55 56 58 60 64 65 66 68 74 75 77 80 82 83 86 87 88 89 92 93 95 96 97 99 100 101 102 103 104 107 110 111 113 114 115 118 120 121 122 123 124 
106 0 2 4 7 8 12 17 18 22 26 29 31 35 40 42 43 45 47 48 49 54 55 57 60 63 64 65 66 67 70 72 77 78 80 81 82 83 84 90 93 94 95 98 102 103 104 107 108 109 114 117 123 124 
107 0 2 8 9 10 11 12 16 18 19 21 24 25 29 31 32 33 35 36 42 45 46 47 48 50 52 53 57 58 61 62 64 65 67 69 72 73 75 76 79 80 85 86 87 88 89 93 95 97 99 100 102 105 106 109 110 111 115 117 118 120 122 123 124 
108 4 7 9 11 13 14 16 23 25 26 29 31 32 36 40 42 48 49 50 51 52 56 57 59 60 61 62 63 64 66 67 68 70 72 73 76 78 79 80 81 82 83 84 87 91 92 94 97 98 101 102 104 106 110 113 114 115 120 121 122 123 
109 2 5 6 9 12 14 16 19 20 21 22 23 24 29 31 32 33 35 36 38 39 41 42 43 45 50 51 53 54 55 58 60 61 62 67 71 72 73 74 77 78 79 80 81 86 90 92 95 96 97 99 100 101 102 104 106 107 110 112 113 114 119 122 
110 1 2 4 5 6 8 16 21 22 23 29 32 33 37 38 39 40 43 44 45 47 51 52 54 55 56 59 62 63 64 65 71 72 74 77 79 80 85 89 90 91 93 95 97 99 100 103 105 107 108 109 113 114 115 119 123 124 
111 2 3 4 5 10 11 12 13 15 16 17 18 27 29 30 31 34 35 40 42 43 44 45 48 51 52 55 56 57 58 60 63 64 65 67 68 70 71 72 75 76 78 79 80 81 82 83 84 85 86 87 88 96 100 102 103 105 107 115 116 119 121 
112 1 2 3 6 10 11 12 20 22 23 25 26 29 30 31 34 35 36 37 38 40 43 45 46 47 49 50 51 60 65 67 68 69 70 72 73 74 76 77 78 84 88 91 92 93 95 96 99 100 101 103 104 109 114 115 117 118 119 121 123 124 
113 0 1 2 3 5 7 10 13 14 16 17 19 20 23 25 26 27 28 29 31 32 33 35 37 38 42 44 45 47 49 50 51 53 54 55 56 57 58 60 61 62 63 64 65 67 69 70 72 74 79 80 82 85 86 89 94 100 101 102 105 108 109 110 117 119 120 121 122 123 124 
114 1 3 6 12 14 15 16 18 19 21 22 26 27 28 30 31 32 33 34 35 39 40 41 43 45 46 47 48 50 51 52 54 59 60 62 65 66 69 72 73 76 79 80 84 85 90 92 94 96 97 99 102 105 106 108 109 110 112 115 116 119 121 122 123 
115 0 1 3 5 7 9 11 12 16 17 18 19 20 21 22 23 26 28 33 34 35 36 39 40 42 48 49 52 55 57 61 65 66 67 71 72 79 85 86 87 88 89 92 93 94 97 103 105 107 108 110 111 112 114 118 120 122 123 
116 0 3 7 8 9 12 14 16 17 18 19 27 29 32 38 39 41 43 44 45 49 50 53 55 58 59 60 61 63 64 65 71 72 74 76 79 83 88 89 90 93 96 98 100 111 114 118 120 121 122 124 
117 1 2 3 6 7 8 9 13 15 16 19 20 23 24 26 27 28 29 31 32 36 37 39 40 44 45 46 47 49 54 55 56 58 61 65 68 69 71 75 76 79 83 85 86 87 90 91 92 94 97 98 99 102 103 106 107 112 113 119 121 122 123 124 
118 2 5 8 9 10 11 13 15 17 18 22 23 24 25 27 28 31 32 33 36 38 40 42 44 49 50 52 55 56 60 63 64 65 67 74 75 77 79 82 84 88 89 91 95 99 100 101 102 103 105 107 112 115 116 123 124 
119 0 2 4 5 6 9 12 13 14 15 16 17 18 19 20 21 27 30 33 36 37 38 40 45 46 51 52 53 55 56 61 63 64 67 69 70 71 72 76 78 83 86 89 92 94 95 99 101 102 104 109 110 111 112 113 114 117 120 122 123 
120 0 2 3 5 6 9 11 12 13 17 18 19 24 25 26 27 30 31 34 35 36 39 40 42 43 47 52 53 54 55 56 57 58 61 63 65 70 77 81 83 86 89 91 93 94 95 96 97 98 100 103 105 107 108 113 115 116 119 121 122 
121 0 2 6 7 8 10 11 14 15 20 22 25 26 28 35 36 40 41 43 44 48 49 50 51 52 53 57 58 59 60 61 63 64 66 69 71 72 73 74 76 77 78 79 80 87 89 90 91 92 94 97 98 101 102 105 108 111 112 113 114 116 117 120 123 124 
122 0 1 5 8 9 10 11 12 13 15 20 22 23 25 27 31 33 36 37 39 40 41 43 45 46 47 48 49 52 53 55 56 59 60 61 63 64 66 67 68 71 74 77 79 81 83 84 88 89 90 91 92 93 96 97 99 101 102 103 105 107 108 109 113 114 115 116 117 119 120 123 
123 0 1 2 3 13 14 16 18 19 24 28 29 32 38 39 42 46 48 51 52 53 56 57 59 61 62 64 67 71 74 76 81 82 87 89 90 91 93 94 95 97 98 103 104 105 106 107 108 110 112 113 114 115 117 118 119 121 122 
124 3 4 5 7 9 11 13 14 17 18 19 22 23 24 25 27 33 34 37 40 41 42 45 47 48 51 53 54 55 57 58 59 60 61 62 65 66 70 71 72 75 77 78 80 84 85 86 88 89 92 94 98 100 105 106 107 110 112 113 116 117 118 121 
